c 9th DIMACS Implementation Challenge: Shortest Paths
c http://www.dis.uniroma1.it/~challenge9
c TIGER/Line graph USA-road-d.NY
c
p sp 10 16
c graph contains 10 nodes and 24 arcs
c
a 1 2 803
a 2 1 803
a 2 3 500
a 1 3 900
a 3 1 900
a 3 2 500
a 3 5 201
a 5 3 201
a 5 6 774
a 6 5 774
a 2 6 710
a 6 2 710
a 6 9 378
a 9 6 378
a 9 10 1673
a 10 9 1673